p cnf 73 25
-53 54 55 56 57 58 59 60 61 62 0
2 -65 0
53 -60 0
53 -61 0
53 -62 0
49 50 51 52 62 0
11 63 64 65 0
9 10 52 61 0
-9 10 50 60 0
64 -66 0
-63 -66 0
-64 -65 0
-11 -65 0
53 -59 0
-63 -65 0
-51 -62 0
-49 -62 0
-52 -61 0
-10 -61 0
-9 -61 0
-50 -60 0
-10 -60 0
9 -60 0
-52 -62 0
-50 -62 0
